&CONTROL
                       title = 'joined'
                 calculation = 'cp'
                 iprint = 10
                 isave = 1
                restart_mode = 'restart'
                      outdir = 'interfaceDiff'
                  pseudo_dir = '/home/azeeshan/pseudopot/all_pbe_UPF_v1.5'
                      prefix = 'joined'
                     disk_io = 'high'
                   verbosity = 'default'
                ndr = 162
                ndw = 163
                       nstep = 1
                       dt = 6
 /
 &SYSTEM
                       ibrav = 0
                         nat = 176
                        ntyp = 4
                     ecutwfc = 30
                     ecutrho = 300
                     nr1b = 30, nr2b = 30, nr3b = 30
 /
 &ELECTRONS
           electron_dynamics='cg'
            emass = 500
            emass_cutoff = 4
            ortho_max = 1000
 /
&IONS
                ion_dynamics = 'verlet'
!                ion_temperature = 'nose', tempw = 800.0, fnosep = 9 21 33
!                nhpcl = 3, nhptyp = 1,
 /

ATOMIC_SPECIES
   Li    6.9410000000  li_pbe_v1.4.uspp.F.UPF
    F   18.9984000000  f_pbe_v1.4.uspp.F.UPF
    C   12.0107000000  c_pbe_v1.2.uspp.F.UPF
    O   15.9994000000  o_pbe_v1.2.uspp.F.UPF
ATOMIC_POSITIONS crystal
Li      0.20845000000000      0.01284000000000      0.75364000000000
Li      0.46141000000000      0.11322000000000      0.75532000000000
Li      0.45704000000000      0.01289000000000      0.81969000000000
Li      0.20882000000000      0.11308000000000      0.81872000000000
 F      0.20904000000000      0.01289000000000      0.82113000000000
 F      0.46062000000000      0.01300000000000      0.75280000000000
 F      0.20887000000000      0.11371000000000      0.75115000000000
 F      0.45774000000000      0.11311000000000      0.82247000000000
Li      0.20920000000000      0.21410000000000      0.75543000000000
Li      0.45872000000000      0.31325000000000      0.75567000000000
Li      0.45863000000000      0.21322000000000      0.82005000000000
Li      0.20869000000000      0.31332000000000      0.82015000000000
 F      0.20879000000000      0.21328000000000      0.82212000000000
 F      0.45962000000000      0.21337000000000      0.75335000000000
 F      0.20936000000000      0.31378000000000      0.75333000000000
 F      0.45972000000000      0.31316000000000      0.82281000000000
Li      0.20966000000000      0.41325000000000      0.75721000000000
Li      0.45678000000000      0.51238000000000      0.75515000000000
Li      0.46118000000000      0.41294000000000      0.82017000000000
Li      0.20924000000000      0.51259000000000      0.82080000000000
 F      0.20891000000000      0.41298000000000      0.82343000000000
 F      0.45802000000000      0.41277000000000      0.75323000000000
 F      0.20934000000000      0.51257000000000      0.75411000000000
 F      0.46083000000000      0.51256000000000      0.82255000000000
Li      0.20935000000000      0.61194000000000      0.75717000000000
Li      0.45868000000000      0.71220000000000      0.75485000000000
Li      0.46112000000000      0.61229000000000      0.81980000000000
Li      0.20977000000000      0.71211000000000      0.82004000000000
 F      0.20932000000000      0.61223000000000      0.82335000000000
 F      0.45794000000000      0.61225000000000      0.75291000000000
 F      0.20903000000000      0.71163000000000      0.75337000000000
 F      0.45975000000000      0.71222000000000      0.82237000000000
Li      0.20878000000000      0.81168000000000      0.75541000000000
Li      0.46142000000000      0.91274000000000      0.75499000000000
Li      0.45868000000000      0.81243000000000      0.81973000000000
Li      0.20934000000000      0.91270000000000      0.81885000000000
 F      0.20938000000000      0.81238000000000      0.82216000000000
 F      0.45969000000000      0.81238000000000      0.75283000000000
 F      0.20859000000000      0.91213000000000      0.75113000000000
 F      0.45779000000000      0.91274000000000      0.82231000000000
Li      0.70881000000000      0.01282000000000      0.75733000000000
Li      0.95651000000000      0.11295000000000      0.75521000000000
Li      0.96090000000000      0.01285000000000      0.81967000000000
Li      0.70878000000000      0.11300000000000      0.82063000000000
 F      0.70853000000000      0.01289000000000      0.82352000000000
 F      0.95708000000000      0.01275000000000      0.75313000000000
 F      0.70872000000000      0.11286000000000      0.75395000000000
 F      0.96009000000000      0.11311000000000      0.82229000000000
Li      0.70842000000000      0.21264000000000      0.75636000000000
Li      0.95938000000000      0.31329000000000      0.75505000000000
Li      0.95936000000000      0.21328000000000      0.81957000000000
Li      0.70899000000000      0.31317000000000      0.81971000000000
 F      0.70890000000000      0.21321000000000      0.82293000000000
 F      0.95812000000000      0.21327000000000      0.75300000000000
 F      0.70834000000000      0.31249000000000      0.75220000000000
 F      0.95821000000000      0.31326000000000      0.82232000000000
Li      0.70778000000000      0.41246000000000      0.75391000000000
Li      0.96137000000000      0.51267000000000      0.75513000000000
Li      0.95678000000000      0.41302000000000      0.81964000000000
Li      0.70855000000000      0.51259000000000      0.81889000000000
 F      0.70886000000000      0.41300000000000      0.82168000000000
 F      0.95986000000000      0.41299000000000      0.75276000000000
 F      0.70809000000000      0.51263000000000      0.75043000000000
 F      0.95704000000000      0.51262000000000      0.82229000000000
Li      0.70812000000000      0.61283000000000      0.75396000000000
Li      0.95948000000000      0.71235000000000      0.75580000000000
Li      0.95676000000000      0.61227000000000      0.81972000000000
Li      0.70806000000000      0.71229000000000      0.81960000000000
 F      0.70855000000000      0.61225000000000      0.82159000000000
 F      0.95987000000000      0.61246000000000      0.75311000000000
 F      0.70877000000000      0.71293000000000      0.75228000000000
 F      0.95820000000000      0.71218000000000      0.82261000000000
Li      0.70891000000000      0.81309000000000      0.75643000000000
Li      0.95655000000000      0.91257000000000      0.75573000000000
Li      0.95938000000000      0.81237000000000      0.81996000000000
Li      0.70817000000000      0.91277000000000      0.82071000000000
 F      0.70834000000000      0.81246000000000      0.82297000000000
 F      0.95820000000000      0.81233000000000      0.75349000000000
 F      0.70895000000000      0.91292000000000      0.75393000000000
 F      0.96010000000000      0.91264000000000      0.82257000000000
Li      0.31619000000000      0.11730000000000      0.54561000000000
Li      0.81111000000000      0.14511000000000      0.60891000000000
Li      0.97837000000000      0.11464000000000      0.51697000000000
Li      0.14966000000000      0.14739000000000      0.63879000000000
Li      0.81678000000000      0.24210000000000      0.54564000000000
Li      0.30900000000000      0.02024000000000      0.60911000000000
Li      0.47822000000000      0.23930000000000      0.51808000000000
Li      0.64890000000000      0.02324000000000      0.63569000000000
 C      0.98064000000000      0.02364000000000      0.62732000000000
 C      0.14669000000000      0.23889000000000      0.52803000000000
 C      0.47983000000000      0.14877000000000      0.62564000000000
 C      0.64700000000000      0.11373000000000      0.52844000000000
 O      0.27822000000000      0.02113000000000      0.54049000000000
 O      0.84799000000000      0.24113000000000      0.61421000000000
 O      0.01632000000000      0.02243000000000      0.51987000000000
 O      0.11060000000000      0.23978000000000      0.63435000000000
 O      0.77967000000000      0.14588000000000      0.54020000000000
 O      0.34682000000000      0.11649000000000      0.61428000000000
 O      0.51640000000000      0.14705000000000      0.52077000000000
 O      0.61032000000000      0.11544000000000      0.63337000000000
 O      0.97671000000000      0.08866000000000      0.63115000000000
 O      0.15006000000000      0.17392000000000      0.52413000000000
 O      0.47774000000000      0.21387000000000      0.62849000000000
 O      0.64947000000000      0.04865000000000      0.52520000000000
Li      0.31766000000000      0.36720000000000      0.54548000000000
Li      0.81006000000000      0.39523000000000      0.60913000000000
Li      0.97877000000000      0.36445000000000      0.51796000000000
Li      0.14834000000000      0.39794000000000      0.63625000000000
Li      0.81574000000000      0.49225000000000      0.54553000000000
Li      0.30913000000000      0.27030000000000      0.60872000000000
Li      0.47849000000000      0.48960000000000      0.51751000000000
Li      0.64891000000000      0.27321000000000      0.63673000000000
 C      0.98024000000000      0.27312000000000      0.62641000000000
 C      0.14728000000000      0.48879000000000      0.52843000000000
 C      0.47990000000000      0.39881000000000      0.62676000000000
 C      0.64717000000000      0.36390000000000      0.52841000000000
 O      0.27868000000000      0.27109000000000      0.54029000000000
 O      0.84580000000000      0.49154000000000      0.61416000000000
 O      0.01587000000000      0.27213000000000      0.52049000000000
 O      0.10955000000000      0.49013000000000      0.63292000000000
 O      0.77957000000000      0.39594000000000      0.54051000000000
 O      0.34840000000000      0.36653000000000      0.61417000000000
 O      0.51694000000000      0.39738000000000      0.52059000000000
 O      0.61061000000000      0.36564000000000      0.63464000000000
 O      0.97747000000000      0.33822000000000      0.62987000000000
 O      0.15036000000000      0.42377000000000      0.52485000000000
 O      0.47632000000000      0.46380000000000      0.63064000000000
 O      0.64947000000000      0.29884000000000      0.52503000000000
Li      0.31737000000000      0.61723000000000      0.54565000000000
Li      0.80891000000000      0.64554000000000      0.60865000000000
Li      0.97843000000000      0.61428000000000      0.51836000000000
Li      0.14812000000000      0.64836000000000      0.63587000000000
Li      0.81710000000000      0.74248000000000      0.54533000000000
Li      0.31040000000000      0.52035000000000      0.60897000000000
Li      0.47797000000000      0.73986000000000      0.51751000000000
Li      0.64904000000000      0.52283000000000      0.63871000000000
 C      0.97925000000000      0.52362000000000      0.62528000000000
 C      0.14708000000000      0.73895000000000      0.52852000000000
 C      0.48012000000000      0.64845000000000      0.62709000000000
 C      0.64664000000000      0.61419000000000      0.52805000000000
 O      0.27965000000000      0.52104000000000      0.54031000000000
 O      0.84753000000000      0.74187000000000      0.61391000000000
 O      0.01636000000000      0.52200000000000      0.52095000000000
 O      0.10999000000000      0.74066000000000      0.63409000000000
 O      0.77876000000000      0.64632000000000      0.54029000000000
 O      0.34861000000000      0.61631000000000      0.61445000000000
 O      0.51601000000000      0.64756000000000      0.52052000000000
 O      0.61092000000000      0.61528000000000      0.63489000000000
 O      0.97777000000000      0.58876000000000      0.62803000000000
 O      0.14954000000000      0.67386000000000      0.52535000000000
 O      0.47643000000000      0.71344000000000      0.63107000000000
 O      0.64975000000000      0.54921000000000      0.52421000000000
Li      0.31560000000000      0.86734000000000      0.54588000000000
Li      0.81014000000000      0.89543000000000      0.60847000000000
Li      0.97788000000000      0.86455000000000      0.51736000000000
Li      0.14925000000000      0.89805000000000      0.63865000000000
Li      0.81807000000000      0.99235000000000      0.54541000000000
Li      0.31027000000000      0.77032000000000      0.60935000000000
Li      0.47771000000000      0.98942000000000      0.51813000000000
Li      0.64864000000000      0.77285000000000      0.63707000000000
 C      0.97976000000000      0.77405000000000      0.62605000000000
 C      0.14641000000000      0.98902000000000      0.52800000000000
 C      0.48001000000000      0.89851000000000      0.62584000000000
 C      0.64651000000000      0.86403000000000      0.52807000000000
 O      0.27932000000000      0.77106000000000      0.54067000000000
 O      0.84978000000000      0.99139000000000      0.61424000000000
 O      0.01693000000000      0.77232000000000      0.52040000000000
 O      0.11106000000000      0.99055000000000      0.63568000000000
 O      0.77880000000000      0.89635000000000      0.53996000000000
 O      0.34667000000000      0.86649000000000      0.61453000000000
 O      0.51537000000000      0.89711000000000      0.52071000000000
 O      0.61054000000000      0.86506000000000      0.63327000000000
 O      0.97740000000000      0.83909000000000      0.62937000000000
 O      0.14914000000000      0.92398000000000      0.52452000000000
 O      0.47806000000000      0.96361000000000      0.62892000000000
 O      0.64999000000000      0.79901000000000      0.52439000000000

CELL_PARAMETERS
    15.58392884240571      0.00000000000000      0.00000000000000
    -0.14861463919199     37.26453591485534      0.00000000000000
     0.00000000000000      0.00000000000000     56.69178373695186
